GLPSOL--GLPK LP/MIP Solver 5.0
Parameter(s) specified in the command line:
 --lp ../modeles/2_329.lp --log 2_329.log
Reading problem data from '../modeles/2_329.lp'...
667 rows, 1320 columns, 4616 non-zeros
658 integer variables, all of which are binary
1995 lines were read
GLPK Integer Optimizer 5.0
667 rows, 1320 columns, 4616 non-zeros
658 integer variables, all of which are binary
Preprocessing...
652 constraint coefficient(s) were reduced
667 rows, 1318 columns, 4614 non-zeros
658 integer variables, all of which are binary
Scaling...
 A: min|aij| =  3.695e-05  max|aij| =  4.000e+00  ratio =  1.082e+05
GM: min|aij| =  5.513e-02  max|aij| =  1.814e+01  ratio =  3.290e+02
EQ: min|aij| =  3.040e-03  max|aij| =  1.000e+00  ratio =  3.290e+02
2N: min|aij| =  2.365e-03  max|aij| =  1.774e+00  ratio =  7.502e+02
Constructing initial basis...
Size of triangular part is 667
Solving LP relaxation...
GLPK Simplex Optimizer 5.0
667 rows, 1318 columns, 4614 non-zeros
      0: obj =   4.000000000e+00 inf =   9.500e+00 (5)
     37: obj =   4.999676644e-01 inf =   0.000e+00 (0)
*   146: obj =  -1.414166492e+00 inf =   5.996e-17 (0)
OPTIMAL LP SOLUTION FOUND
Integer optimization begins...
Long-step dual simplex will be used
+   146: mip =     not found yet >=              -inf        (1; 0)
+   148: >>>>>  -1.414166492e+00 >=  -1.414166492e+00 < 0.1% (3; 0)
+   148: mip =  -1.414166492e+00 >=     tree is empty   0.0% (0; 5)
INTEGER OPTIMAL SOLUTION FOUND
Time used:   0.0 secs
Memory used: 1.9 Mb (2024400 bytes)
